Route #1: 54 8 76 47 25 98 15 139 10 105 29 127 72 59
Route #2: 138 126 143 84 153 82 109 134 124 128 110 160 85 147 121 159
Route #3: 103 93 146 39 151 101 4 87 132 112 157 40 30 118 2
Route #4: 155 92 125 137 108 81 158 74 136 91 152 45 150 90 53 80
Route #5: 86 154 111 140 99 130 58 68 11 38 73 23 48 26 145
Route #6: 116 28 120 122 133 14 97 89 149 107 1 55 148 60 21
Route #7: 156 61 70 113 63 104 83 161 77 17 144 119 135 115 141
Route #8: 46 69 42 65 51 3 33 75 7 44 22 34 20 79 41
Route #9: 67 62 114 95 129 96 88 142 43 123 66 56 94 36 100
Route #10: 32 131 57 16 27 117 106 35 31 102 18 64 19 78 52
Route #11: 9 5 37 13 71 24 49 6 12 50
Cost 18454
